(set-logic HORN)
(set-info :source |
    Benchmark: C_VC
    Output by Princess (http://www.philipp.ruemmer.org/princess.shtml)
|)
(set-info :status sat)
(declare-fun inv_main2 () Bool)
(declare-fun inv_main8 (Int Int Int) Bool)
(declare-fun inv_main9 (Int Int Int) Bool)
(assert inv_main2)
(assert (forall ((var0 Int) (var1 Int) (var2 Int)) (or (not (and (inv_main9 var2 var1 var0) (<= 0 (+ var1 (* (- 1) var2))))) (inv_main9 (+ var2 1) var1 (+ var0 2)))))
(assert (forall ((var0 Int)) (or (not (and inv_main2 (and (<= 0 (+ (+ 1000 (* (- 1) var0)) (- 1))) (<= 0 (+ var0 1000))))) (inv_main9 1 var0 0))))
(assert (forall ((var0 Int) (var1 Int) (var2 Int)) (or (not (and (inv_main9 var2 var1 var0) (not (<= 0 (+ var1 (* (- 1) var2)))))) (inv_main8 var2 var1 var0))))
(assert (forall ((var0 Int) (var1 Int) (var2 Int)) (not (and (inv_main8 var2 var1 var0) (and (not (= var0 (* 2 var1))) (not (= var0 0)))))))
(check-sat)
